WARNING: for repeatability, setting FPU to use double precision
============================[ Problem Statistics ]=============================
|                                                                             |
|  Number of variables:         64686                                         |
|  Number of clauses:          334399                                         |
|  Parse time:                   0.08 s                                       |
|                                                                             |
============================[ Search Statistics ]==============================
| Conflicts |          ORIGINAL         |          LEARNT          | Progress |
|           |    Vars  Clauses Literals |    Limit  Clauses Lit/Cl |          |
===============================================================================
|       100 |   61547   315546   834880 |   115700      100     18 |  4.853 % |
|       250 |   61547   315546   834880 |   127270      250     13 |  4.853 % |
|       475 |   61547   315546   834880 |   139997      475     13 |  4.853 % |
|       812 |   61547   315546   834880 |   153996      812     14 |  4.853 % |
|      1318 |   61547   315546   834880 |   169396     1318     14 |  4.853 % |
|      2077 |   61547   315546   834880 |   186336     2077     14 |  4.853 % |
|      3216 |   61547   315546   834880 |   204969     3216     17 |  4.853 % |
|      4924 |   61547   315546   834880 |   225466     4924     17 |  4.853 % |
|      7486 |   61448   315540   834866 |   248013     7482     17 |  5.006 % |
|     11330 |   61448   315005   833606 |   272815    11308     19 |  5.006 % |
|     17096 |   61433   314939   833450 |   300096    17065     21 |  5.029 % |
|     25745 |   61400   314751   833015 |   330106    25688     22 |  5.080 % |
|     38719 |   61000   312319   826572 |   363116    38534     26 |  5.698 % |
|     58180 |   61000   312319   826572 |   399428    57995     27 |  5.698 % |
|     87372 |   61000   312319   826572 |   439371    87187     29 |  5.698 % |
===============================================================================
restarts              : 316
conflicts             : 116731         (13930 /sec)
decisions             : 442219         (0.00 % random) (52771 /sec)
propagations          : 85703403       (10227136 /sec)
conflict literals     : 3375579        (20.34 % deleted)
Memory used           : 68.00 MB
CPU time              : 8.38 s

SATISFIABLE
